200
120 120
1 84 935
2 83 155
3 83 921
4 82 930
5 82 347
6 82 774
7 81 875
8 81 479
9 81 742
10 81 234
11 81 655
12 81 242
13 81 645
14 80 877
15 80 942
16 79 808
17 79 658
18 79 849
19 79 811
20 78 146
21 78 968
22 78 280
23 78 851
24 77 947
25 77 113
26 77 52
27 77 598
28 77 430
29 77 925
30 77 446
31 77 893
32 77 378
33 77 893
34 76 504
35 76 340
36 75 787
37 75 823
38 75 564
39 75 528
40 75 296
41 75 533
42 75 775
43 75 849
44 74 608
45 74 233
46 74 928
47 74 301
48 73 191
49 72 993
50 71 777
51 70 254
52 70 592
53 70 230
54 70 434
55 70 722
56 69 906
57 69 179
58 68 598
59 68 233
60 68 641
61 67 715
62 67 738
63 67 673
64 67 372
65 67 126
66 67 143
67 66 18
68 66 51
69 66 644
70 66 598
71 65 323
72 65 89
73 65 666
74 65 870
75 64 384
76 64 801
77 64 805
78 63 904
79 63 505
80 62 418
81 61 415
82 61 612
83 61 337
84 60 799
85 60 760
86 60 691
87 60 892
88 59 371
89 59 979
90 59 136
91 58 782
92 58 72
93 58 738
94 57 652
95 57 554
96 56 817
97 56 401
98 55 206
99 55 618
100 55 188
101 55 365
102 54 204
103 54 151
104 54 810
105 54 879
106 53 52
107 53 75
108 53 775
109 53 529
110 53 885
111 53 8
112 53 718
113 53 622
114 52 459
115 52 970
116 51 803
117 51 800
118 50 458
119 50 35
120 50 173
121 50 597
122 50 525
123 49 21
124 49 3
125 49 523
126 49 476
127 49 775
128 49 517
129 48 281
130 48 318
131 48 941
132 48 182
133 48 194
134 47 804
135 47 506
136 47 186
137 46 199
138 45 274
139 45 641
140 45 539
141 44 61
142 44 163
143 44 644
144 43 674
145 43 784
146 43 333
147 42 596
148 42 875
149 42 137
150 42 261
151 41 297
152 40 63
153 40 886
154 40 939
155 40 235
156 40 613
157 40 109
158 39 31
159 39 300
160 39 383
161 38 539
162 38 161
163 37 560
164 37 165
165 37 305
166 37 779
167 37 488
168 37 396
169 37 680
170 37 540
171 36 606
172 36 762
173 36 643
174 35 711
175 35 909
176 35 372
177 34 854
178 34 514
179 33 149
180 32 451
181 32 408
182 32 951
183 32 59
184 31 130
185 30 401
186 30 509
187 30 391
188 29 26
189 29 735
190 29 518
191 29 154
192 29 915
193 27 350
194 26 954
195 26 346
196 25 186
197 25 24
198 24 191
199 24 26
200 24 514
